415.35
414.27
414.20
412.78
410.28
408.41
408.41
406.50
404.25
403.14
399.65
394.89
394.89
394.53
392.02
391.65
391.19
388.94
387.39
387.21
383.19
382.93
382.82
381.16
381.16
379.48
377.78
376.92
376.14
375.79
373.83
373.35
372.47
371.35
370.37
369.85
369.02
368.16
367.57
367.43
366.66
366.34
366.11
364.79
363.02
362.45
361.83
361.39
360.89
360.89
360.39
359.10
357.36
357.20
355.76
355.76
355.68
355.51
353.94
353.05
352.51
352.51
352.22
352.17
351.36
350.27
349.47
348.98
348.74
348.74
348.38
347.26
347.03
346.52
346.20
345.18
344.60
344.41
344.41
343.36
341.67
341.17
340.19
339.87
339.53
339.09
339.09
337.66
337.59
337.59
337.59
336.55
334.87
333.56
333.56
333.52
332.61
332.44
332.44
331.44
